NAME : single
TYPE : ATSP
DIMENSION : 5
EDGE_WEIGHT_TYPE : EXPLICIT
EDGE_WEIGHT_FORMAT : FULL_MATRIX
EDGE_WEIGHT_SECTION
0 554 503 976 959 
199909 0 481 571 862 
199903 481 0 620 573 
199806 571 620 0 479 
199797 862 573 479 0 
EOF